data/mip_solutions/furman_sahinidis/transportation/7sp1_gurobi.sol
Elapsed time: 0.0883710384369
Nodes explored: 0
Upper bound: 7.0
Lower bound: 7.0
y[0,0]=1
y[0,1]=1
y[0,2]=1
y[1,0]=1
y[1,3]=1
y[2,1]=1
y[2,4]=1
q[0,1,1,4]=82.5
q[0,1,2,1]=527.0
q[0,1,2,2]=790.5
q[0,1,3,2]=2.04636307899e-12
q[0,2,1,4]=127.1
q[0,2,2,3]=712.9
q[0,3,1,3]=960.4
q[0,3,2,3]=3239.6
q[0,4,0,5]=114.4
q[0,4,1,4]=445.6
q[0,5,0,5]=1120.0
q[1,0,0,2]=90.0
q[1,0,0,3]=853.2
q[1,0,0,4]=320.0
q[1,0,0,5]=45.6
q[1,0,3,1]=595.2
q[1,1,0,1]=800.0
q[1,1,0,2]=390.0
q[1,2,0,3]=118.8
q[1,2,3,2]=595.2
q[1,3,0,3]=1428.0
q[2,2,1,3]=1008.0
q[2,3,1,3]=2945.6
q[2,3,4,5]=2094.4
q[2,4,4,5]=672.0
q[2,5,4,5]=1344.0
